c Software verification instances generated by
c Calysto static checker. For more information
c contact Domagoj Babic (Google for my email).
c Verified property:
c NULL ptr dereference check
c Location in code: /work/benchmarks/SOURCES/HyperSAT/queues.h:79
p cnf 303 736
1 0 
-2 0 
-35 0 
-36 0 
-37 0 
-38 0 
-39 0 
-40 0 
-41 0 
-42 0 
-43 0 
-44 0 
-45 0 
-46 0 
-47 0 
-48 0 
-49 0 
-50 0 
-51 0 
-52 0 
-53 0 
-54 0 
-55 0 
-56 0 
-57 0 
-58 0 
-59 0 
-60 0 
-61 0 
-62 0 
-63 0 
-64 0 
-65 0 
-66 0 
231 0 
-303 0 
3 68 0
-3 -35 68 0
-3 -68 0
3 -35 -68 0
4 69 0
-4 -36 69 0
-4 -69 0
4 -36 -69 0
5 70 0
-5 -37 70 0
-5 -70 0
5 -37 -70 0
6 71 0
-6 -38 71 0
-6 -71 0
6 -38 -71 0
7 72 0
-7 -39 72 0
-7 -72 0
7 -39 -72 0
8 73 0
-8 -40 73 0
-8 -73 0
8 -40 -73 0
9 74 0
-9 -41 74 0
-9 -74 0
9 -41 -74 0
10 75 0
-10 -42 75 0
-10 -75 0
10 -42 -75 0
11 76 0
-11 -43 76 0
-11 -76 0
11 -43 -76 0
12 77 0
-12 -44 77 0
-12 -77 0
12 -44 -77 0
13 78 0
-13 -45 78 0
-13 -78 0
13 -45 -78 0
14 79 0
-14 -46 79 0
-14 -79 0
14 -46 -79 0
15 80 0
-15 -47 80 0
-15 -80 0
15 -47 -80 0
16 81 0
-16 -48 81 0
-16 -81 0
16 -48 -81 0
17 82 0
-17 -49 82 0
-17 -82 0
17 -49 -82 0
18 83 0
-18 -50 83 0
-18 -83 0
18 -50 -83 0
19 84 0
-19 -51 84 0
-19 -84 0
19 -51 -84 0
20 85 0
-20 -52 85 0
-20 -85 0
20 -52 -85 0
21 86 0
-21 -53 86 0
-21 -86 0
21 -53 -86 0
22 87 0
-22 -54 87 0
-22 -87 0
22 -54 -87 0
23 88 0
-23 -55 88 0
-23 -88 0
23 -55 -88 0
24 89 0
-24 -56 89 0
-24 -89 0
24 -56 -89 0
25 90 0
-25 -57 90 0
-25 -90 0
25 -57 -90 0
26 91 0
-26 -58 91 0
-26 -91 0
26 -58 -91 0
27 92 0
-27 -59 92 0
-27 -92 0
27 -59 -92 0
28 93 0
-28 -60 93 0
-28 -93 0
28 -60 -93 0
29 94 0
-29 -61 94 0
-29 -94 0
29 -61 -94 0
30 95 0
-30 -62 95 0
-30 -95 0
30 -62 -95 0
31 96 0
-31 -63 96 0
-31 -96 0
31 -63 -96 0
32 97 0
-32 -64 97 0
-32 -97 0
32 -64 -97 0
33 98 0
-33 -65 98 0
-33 -98 0
33 -65 -98 0
34 99 0
-34 -66 99 0
-34 -99 0
34 -66 -99 0
-68 100 0
1 -100 0
68 -100 0
-69 -100 101 0
100 -101 0
69 -101 0
-70 -101 102 0
101 -102 0
70 -102 0
-71 -102 103 0
102 -103 0
71 -103 0
-72 -103 104 0
103 -104 0
72 -104 0
-73 -104 105 0
104 -105 0
73 -105 0
-74 -105 106 0
105 -106 0
74 -106 0
-75 -106 107 0
106 -107 0
75 -107 0
-76 -107 108 0
107 -108 0
76 -108 0
-77 -108 109 0
108 -109 0
77 -109 0
-78 -109 110 0
109 -110 0
78 -110 0
-79 -110 111 0
110 -111 0
79 -111 0
-80 -111 112 0
111 -112 0
80 -112 0
-81 -112 113 0
112 -113 0
81 -113 0
-82 -113 114 0
113 -114 0
82 -114 0
-83 -114 115 0
114 -115 0
83 -115 0
-84 -115 116 0
115 -116 0
84 -116 0
-85 -116 117 0
116 -117 0
85 -117 0
-86 -117 118 0
117 -118 0
86 -118 0
-87 -118 119 0
118 -119 0
87 -119 0
-88 -119 120 0
119 -120 0
88 -120 0
-89 -120 121 0
120 -121 0
89 -121 0
-90 -121 122 0
121 -122 0
90 -122 0
-91 -122 123 0
122 -123 0
91 -123 0
-92 -123 124 0
123 -124 0
92 -124 0
-93 -124 125 0
124 -125 0
93 -125 0
-94 -125 126 0
125 -126 0
94 -126 0
-95 -126 127 0
126 -127 0
95 -127 0
-96 -127 128 0
127 -128 0
96 -128 0
-97 -128 129 0
128 -129 0
97 -129 0
-98 -129 130 0
129 -130 0
98 -130 0
-99 -130 131 0
130 -131 0
99 -131 0
-67 131 0
67 -131 0
132 165 0
-35 -132 165 0
-132 -165 0
-35 132 -165 0
133 166 0
-36 -133 166 0
-133 -166 0
-36 133 -166 0
134 167 0
-37 -134 167 0
-134 -167 0
-37 134 -167 0
135 168 0
-38 -135 168 0
-135 -168 0
-38 135 -168 0
136 169 0
-39 -136 169 0
-136 -169 0
-39 136 -169 0
137 170 0
-40 -137 170 0
-137 -170 0
-40 137 -170 0
138 171 0
-41 -138 171 0
-138 -171 0
-41 138 -171 0
139 172 0
-42 -139 172 0
-139 -172 0
-42 139 -172 0
140 173 0
-43 -140 173 0
-140 -173 0
-43 140 -173 0
141 174 0
-44 -141 174 0
-141 -174 0
-44 141 -174 0
142 175 0
-45 -142 175 0
-142 -175 0
-45 142 -175 0
143 176 0
-46 -143 176 0
-143 -176 0
-46 143 -176 0
144 177 0
-47 -144 177 0
-144 -177 0
-47 144 -177 0
145 178 0
-48 -145 178 0
-145 -178 0
-48 145 -178 0
146 179 0
-49 -146 179 0
-146 -179 0
-49 146 -179 0
147 180 0
-50 -147 180 0
-147 -180 0
-50 147 -180 0
148 181 0
-51 -148 181 0
-148 -181 0
-51 148 -181 0
149 182 0
-52 -149 182 0
-149 -182 0
-52 149 -182 0
150 183 0
-53 -150 183 0
-150 -183 0
-53 150 -183 0
151 184 0
-54 -151 184 0
-151 -184 0
-54 151 -184 0
152 185 0
-55 -152 185 0
-152 -185 0
-55 152 -185 0
153 186 0
-56 -153 186 0
-153 -186 0
-56 153 -186 0
154 187 0
-57 -154 187 0
-154 -187 0
-57 154 -187 0
155 188 0
-58 -155 188 0
-155 -188 0
-58 155 -188 0
156 189 0
-59 -156 189 0
-156 -189 0
-59 156 -189 0
157 190 0
-60 -157 190 0
-157 -190 0
-60 157 -190 0
158 191 0
-61 -158 191 0
-158 -191 0
-61 158 -191 0
159 192 0
-62 -159 192 0
-159 -192 0
-62 159 -192 0
160 193 0
-63 -160 193 0
-160 -193 0
-63 160 -193 0
161 194 0
-64 -161 194 0
-161 -194 0
-64 161 -194 0
162 195 0
-65 -162 195 0
-162 -195 0
-65 162 -195 0
163 196 0
-66 -163 196 0
-163 -196 0
-66 163 -196 0
-165 197 0
1 -197 0
165 -197 0
-166 -197 198 0
197 -198 0
166 -198 0
-167 -198 199 0
198 -199 0
167 -199 0
-168 -199 200 0
199 -200 0
168 -200 0
-169 -200 201 0
200 -201 0
169 -201 0
-170 -201 202 0
201 -202 0
170 -202 0
-171 -202 203 0
202 -203 0
171 -203 0
-172 -203 204 0
203 -204 0
172 -204 0
-173 -204 205 0
204 -205 0
173 -205 0
-174 -205 206 0
205 -206 0
174 -206 0
-175 -206 207 0
206 -207 0
175 -207 0
-176 -207 208 0
207 -208 0
176 -208 0
-177 -208 209 0
208 -209 0
177 -209 0
-178 -209 210 0
209 -210 0
178 -210 0
-179 -210 211 0
210 -211 0
179 -211 0
-180 -211 212 0
211 -212 0
180 -212 0
-181 -212 213 0
212 -213 0
181 -213 0
-182 -213 214 0
213 -214 0
182 -214 0
-183 -214 215 0
214 -215 0
183 -215 0
-184 -215 216 0
215 -216 0
184 -216 0
-185 -216 217 0
216 -217 0
185 -217 0
-186 -217 218 0
217 -218 0
186 -218 0
-187 -218 219 0
218 -219 0
187 -219 0
-188 -219 220 0
219 -220 0
188 -220 0
-189 -220 221 0
220 -221 0
189 -221 0
-190 -221 222 0
221 -222 0
190 -222 0
-191 -222 223 0
222 -223 0
191 -223 0
-192 -223 224 0
223 -224 0
192 -224 0
-193 -224 225 0
224 -225 0
193 -225 0
-194 -225 226 0
225 -226 0
194 -226 0
-195 -226 227 0
226 -227 0
195 -227 0
-196 -227 228 0
227 -228 0
196 -228 0
-164 228 0
164 -228 0
-164 -229 230 0
164 -230 0
229 -230 0
-164 -230 232 0
-164 230 -232 0
164 232 0
164 231 -232 0
-67 -232 233 0
232 -233 0
67 -233 0
-233 -234 235 0
233 -235 0
234 -235 0
-67 -235 236 0
-67 235 -236 0
67 -232 236 0
67 232 -236 0
132 239 0
-35 -132 239 0
-132 -239 0
-35 132 -239 0
133 240 0
-36 -133 240 0
-133 -240 0
-36 133 -240 0
134 241 0
-37 -134 241 0
-134 -241 0
-37 134 -241 0
135 242 0
-38 -135 242 0
-135 -242 0
-38 135 -242 0
136 243 0
-39 -136 243 0
-136 -243 0
-39 136 -243 0
137 244 0
-40 -137 244 0
-137 -244 0
-40 137 -244 0
138 245 0
-41 -138 245 0
-138 -245 0
-41 138 -245 0
139 246 0
-42 -139 246 0
-139 -246 0
-42 139 -246 0
140 247 0
-43 -140 247 0
-140 -247 0
-43 140 -247 0
141 248 0
-44 -141 248 0
-141 -248 0
-44 141 -248 0
142 249 0
-45 -142 249 0
-142 -249 0
-45 142 -249 0
143 250 0
-46 -143 250 0
-143 -250 0
-46 143 -250 0
144 251 0
-47 -144 251 0
-144 -251 0
-47 144 -251 0
145 252 0
-48 -145 252 0
-145 -252 0
-48 145 -252 0
146 253 0
-49 -146 253 0
-146 -253 0
-49 146 -253 0
147 254 0
-50 -147 254 0
-147 -254 0
-50 147 -254 0
148 255 0
-51 -148 255 0
-148 -255 0
-51 148 -255 0
149 256 0
-52 -149 256 0
-149 -256 0
-52 149 -256 0
150 257 0
-53 -150 257 0
-150 -257 0
-53 150 -257 0
151 258 0
-54 -151 258 0
-151 -258 0
-54 151 -258 0
152 259 0
-55 -152 259 0
-152 -259 0
-55 152 -259 0
153 260 0
-56 -153 260 0
-153 -260 0
-56 153 -260 0
154 261 0
-57 -154 261 0
-154 -261 0
-57 154 -261 0
155 262 0
-58 -155 262 0
-155 -262 0
-58 155 -262 0
156 263 0
-59 -156 263 0
-156 -263 0
-59 156 -263 0
157 264 0
-60 -157 264 0
-157 -264 0
-60 157 -264 0
158 265 0
-61 -158 265 0
-158 -265 0
-61 158 -265 0
159 266 0
-62 -159 266 0
-159 -266 0
-62 159 -266 0
160 267 0
-63 -160 267 0
-160 -267 0
-63 160 -267 0
161 268 0
-64 -161 268 0
-161 -268 0
-64 161 -268 0
162 269 0
-65 -162 269 0
-162 -269 0
-65 162 -269 0
163 270 0
-66 -163 270 0
-163 -270 0
-66 163 -270 0
-239 271 0
1 -271 0
239 -271 0
-240 -271 272 0
271 -272 0
240 -272 0
-241 -272 273 0
272 -273 0
241 -273 0
-242 -273 274 0
273 -274 0
242 -274 0
-243 -274 275 0
274 -275 0
243 -275 0
-244 -275 276 0
275 -276 0
244 -276 0
-245 -276 277 0
276 -277 0
245 -277 0
-246 -277 278 0
277 -278 0
246 -278 0
-247 -278 279 0
278 -279 0
247 -279 0
-248 -279 280 0
279 -280 0
248 -280 0
-249 -280 281 0
280 -281 0
249 -281 0
-250 -281 282 0
281 -282 0
250 -282 0
-251 -282 283 0
282 -283 0
251 -283 0
-252 -283 284 0
283 -284 0
252 -284 0
-253 -284 285 0
284 -285 0
253 -285 0
-254 -285 286 0
285 -286 0
254 -286 0
-255 -286 287 0
286 -287 0
255 -287 0
-256 -287 288 0
287 -288 0
256 -288 0
-257 -288 289 0
288 -289 0
257 -289 0
-258 -289 290 0
289 -290 0
258 -290 0
-259 -290 291 0
290 -291 0
259 -291 0
-260 -291 292 0
291 -292 0
260 -292 0
-261 -292 293 0
292 -293 0
261 -293 0
-262 -293 294 0
293 -294 0
262 -294 0
-263 -294 295 0
294 -295 0
263 -295 0
-264 -295 296 0
295 -296 0
264 -296 0
-265 -296 297 0
296 -297 0
265 -297 0
-266 -297 298 0
297 -298 0
266 -298 0
-267 -298 299 0
298 -299 0
267 -299 0
-268 -299 300 0
299 -300 0
268 -300 0
-269 -300 301 0
300 -301 0
269 -301 0
-270 -301 302 0
301 -302 0
270 -302 0
-238 302 0
238 -302 0
237 238 0
-237 -238 0
236 303 0
-237 303 0
-236 237 -303 0
